% Auto-generated by scripts/generate_dzn.py
% problem_type   = regex
% instance       = regex_40
% source_json    = instances_json/2_high_blowup/regex_40.json
% blowup         = 35.75
% representation = NFA

mode = 1;

var_count = 22;
n_constraints = 2;
Q = 15;
S = 2;
q0 = [1, 1];
F = [{15}, {13}];
weights = [6, 9, 10, 3, 7, 3, 5, 2, 5, 7, 1, 10, 5, 6, 6, 1, 3, 1, 6, 2, 8, 7];
d_dfa = array3d(1..2, 1..15, 1..2, [
  % k = 1
    0, 0,
    0, 0,
    0, 0,
    0, 0,
    0, 0,
    0, 0,
    0, 0,
    0, 0,
    0, 0,
    0, 0,
    0, 0,
    0, 0,
    0, 0,
    0, 0,
    0, 0,

  % k = 2
    0, 0,
    0, 0,
    0, 0,
    0, 0,
    0, 0,
    0, 0,
    0, 0,
    0, 0,
    0, 0,
    0, 0,
    0, 0,
    0, 0,
    0, 0,
    0, 0,
    0, 0
]);
d_nfa = array3d(1..2, 1..15, 1..2, [
  % k = 1
    {1}, {1, 2},
    {3}, {},
    {4}, {4},
    {5}, {5},
    {6}, {6},
    {7}, {7},
    {8}, {8},
    {9}, {9},
    {10}, {10},
    {11}, {11},
    {12}, {12},
    {13}, {13},
    {14}, {14},
    {15}, {15},
    {}, {},

  % k = 2
    {2}, {1},
    {3}, {2},
    {4}, {3},
    {5}, {4},
    {6}, {5},
    {7}, {6},
    {8}, {7},
    {9}, {8},
    {10}, {9},
    {11}, {10},
    {12}, {11},
    {13}, {12},
    {}, {13},
    {}, {},
    {}, {}
]);
